data/1/31bonds/docplex-bin-avgonly.lp
\ This file has been generated by DOcplex
\ ENCODING=ISO-8859-1
\Problem name: VCIT _ VCIT (bench)

Minimize
 obj: [ 72 fund_enriched.pmv_tgt_Investment_Grade_Credit_Capital_Goods^2
      + 72 fund_enriched.pmv_tgt_Investment_Grade_Credit_Insurance^2
      + 72 fund_enriched.pmv_tgt_Investment_Grade_Credit_Transportation^2 ]/2
Subject To
 trade_num_upper_limit: iTrade_020002BJ9 + iTrade_026874DS3 + iTrade_081437AT2
                        + iTrade_097023CJ2 + iTrade_13645RAD6 + iTrade_13645RBF0
                        + iTrade_14448CBC7 + iTrade_15135BAW1 + iTrade_21871XAS8
                        + iTrade_24422EWZ8 + iTrade_24422EXP9 + iTrade_314353AA1
                        + iTrade_36166NAK9 + iTrade_438516CM6 + iTrade_443201AC2
                        + iTrade_444859BR2 + iTrade_444859BV3 + iTrade_444859BY7
                        + iTrade_444859CA8 + iTrade_45687VAB2 + iTrade_539830CD9
                        + iTrade_540424AT5 + iTrade_56501RAN6 + iTrade_655844CR7
                        + iTrade_655844CT3 + iTrade_75513EAD3 + iTrade_759351AP4
                        + iTrade_760759BA7 + iTrade_760759BC3 + iTrade_907818FX1
                        + iTrade_91324PEJ7 <= 500

                                                                                                             limit_sodraw.filterLevel1_sodraw.filterLevel3_Investment_Grade_Credit_Capital_Goods_fund_enriched.pmv_min:
                                                                                                            0.498939895061 iTrade_081437AT2
                                                                                                            + 0.245689659406 iTrade_097023CJ2
                                                                                                            + 0.593947311212 iTrade_14448CBC7
                                                                                                            + 0.359862572135 iTrade_24422EWZ8
                                                                                                            + 0.570885850982 iTrade_24422EXP9
                                                                                                            + 0.556954443193 iTrade_36166NAK9
                                                                                                            + 0.554189150511 iTrade_438516CM6
                                                                                                            + 0.318717548589 iTrade_443201AC2
                                                                                                            + 0.235887590873 iTrade_45687VAB2
                                                                                                            + 0.561372552427 iTrade_539830CD9
                                                                                                            + 0.451779939004 iTrade_75513EAD3
                                                                                                            + 0.462441975119 iTrade_760759BA7
                                                                                                            + 0.560876197288 iTrade_760759BC3
                                                                                                             >= 
                                                                                                            4.758736462913

                                                                                                             limit_sodraw.filterLevel1_sodraw.filterLevel3_Investment_Grade_Credit_Capital_Goods_fund_enriched.pmv_max:
                                                                                                            0.498939895061 iTrade_081437AT2
                                                                                                            + 0.245689659406 iTrade_097023CJ2
                                                                                                            + 0.593947311212 iTrade_14448CBC7
                                                                                                            + 0.359862572135 iTrade_24422EWZ8
                                                                                                            + 0.570885850982 iTrade_24422EXP9
                                                                                                            + 0.556954443193 iTrade_36166NAK9
                                                                                                            + 0.554189150511 iTrade_438516CM6
                                                                                                            + 0.318717548589 iTrade_443201AC2
                                                                                                            + 0.235887590873 iTrade_45687VAB2
                                                                                                            + 0.561372552427 iTrade_539830CD9
                                                                                                            + 0.451779939004 iTrade_75513EAD3
                                                                                                            + 0.462441975119 iTrade_760759BA7
                                                                                                            + 0.560876197288 iTrade_760759BC3
                                                                                                             <= 
                                                                                                            6.847872350911
 fund_enriched.pmv_Investment_Grade_Credit_Capital_Goods_tgt:
                                                              fund_enriched.pmv_tgt_Investment_Grade_Credit_Capital_Goods
                                                              - 0.498939895061 iTrade_081437AT2
                                                              - 0.245689659406 iTrade_097023CJ2
                                                              - 0.593947311212 iTrade_14448CBC7
                                                              - 0.359862572135 iTrade_24422EWZ8
                                                              - 0.570885850982 iTrade_24422EXP9
                                                              - 0.556954443193 iTrade_36166NAK9
                                                              - 0.554189150511 iTrade_438516CM6
                                                              - 0.318717548589 iTrade_443201AC2
                                                              - 0.235887590873 iTrade_45687VAB2
                                                              - 0.561372552427 iTrade_539830CD9
                                                              - 0.451779939004 iTrade_75513EAD3
                                                              - 0.462441975119 iTrade_760759BA7
                                                              - 0.560876197288 iTrade_760759BC3
                                                               = 
                                                              -5.803304406912

                                                                                                                limit_sodraw.filterLevel1_sodraw.filterLevel3_Investment_Grade_Credit_Capital_Goods_fund_enriched.dxsCtr_min:
                                                                                                               233.033365950620 iTrade_081437AT2
                                                                                                               + 310.153535258368 iTrade_097023CJ2
                                                                                                               + 393.282773577898 iTrade_14448CBC7
                                                                                                               + 81.609602334700 iTrade_24422EWZ8
                                                                                                               + 281.942721027528 iTrade_24422EXP9
                                                                                                               + 261.482004897843 iTrade_36166NAK9
                                                                                                               + 236.650806972058 iTrade_438516CM6
                                                                                                               + 141.545348588576 iTrade_443201AC2
                                                                                                               + 140.650233636667 iTrade_45687VAB2
                                                                                                               + 277.462844628398 iTrade_539830CD9
                                                                                                               + 150.455920129658 iTrade_75513EAD3
                                                                                                               + 269.290318652141 iTrade_760759BA7
                                                                                                               + 327.569980527203 iTrade_760759BC3
                                                                                                                >= 
                                                                                                               1780.689260450720

                                                                                                                limit_sodraw.filterLevel1_sodraw.filterLevel3_Investment_Grade_Credit_Capital_Goods_fund_enriched.dxsCtr_max:
                                                                                                               233.033365950620 iTrade_081437AT2
                                                                                                               + 310.153535258368 iTrade_097023CJ2
                                                                                                               + 393.282773577898 iTrade_14448CBC7
                                                                                                               + 81.609602334700 iTrade_24422EWZ8
                                                                                                               + 281.942721027528 iTrade_24422EXP9
                                                                                                               + 261.482004897843 iTrade_36166NAK9
                                                                                                               + 236.650806972058 iTrade_438516CM6
                                                                                                               + 141.545348588576 iTrade_443201AC2
                                                                                                               + 140.650233636667 iTrade_45687VAB2
                                                                                                               + 277.462844628398 iTrade_539830CD9
                                                                                                               + 150.455920129658 iTrade_75513EAD3
                                                                                                               + 269.290318652141 iTrade_760759BA7
                                                                                                               + 327.569980527203 iTrade_760759BC3
                                                                                                                <= 
                                                                                                               3869.825148448374

                                                                                                         limit_sodraw.filterLevel1_sodraw.filterLevel3_Investment_Grade_Credit_Insurance_fund_enriched.pmv_min:
                                                                                                        0.460848299982 iTrade_020002BJ9
                                                                                                        + 0.562951104491 iTrade_026874DS3
                                                                                                        + 0.487295432194 iTrade_15135BAW1
                                                                                                        + 0.583333333333 iTrade_21871XAS8
                                                                                                        + 0.299987752488 iTrade_444859BR2
                                                                                                        + 0.578260571821 iTrade_444859BV3
                                                                                                        + 0.580459967536 iTrade_444859BY7
                                                                                                        + 0.563312209458 iTrade_444859CA8
                                                                                                        + 0.523337030595 iTrade_540424AT5
                                                                                                        + 0.521759522393 iTrade_56501RAN6
                                                                                                        + 0.516965991692 iTrade_759351AP4
                                                                                                        + 0.408217997662 iTrade_91324PEJ7
                                                                                                         >= 
                                                                                                        4.134392251914

                                                                                                         limit_sodraw.filterLevel1_sodraw.filterLevel3_Investment_Grade_Credit_Insurance_fund_enriched.pmv_max:
                                                                                                        0.460848299982 iTrade_020002BJ9
                                                                                                        + 0.562951104491 iTrade_026874DS3
                                                                                                        + 0.487295432194 iTrade_15135BAW1
                                                                                                        + 0.583333333333 iTrade_21871XAS8
                                                                                                        + 0.299987752488 iTrade_444859BR2
                                                                                                        + 0.578260571821 iTrade_444859BV3
                                                                                                        + 0.580459967536 iTrade_444859BY7
                                                                                                        + 0.563312209458 iTrade_444859CA8
                                                                                                        + 0.523337030595 iTrade_540424AT5
                                                                                                        + 0.521759522393 iTrade_56501RAN6
                                                                                                        + 0.516965991692 iTrade_759351AP4
                                                                                                        + 0.408217997662 iTrade_91324PEJ7
                                                                                                         <= 
                                                                                                        6.223528139912
 fund_enriched.pmv_Investment_Grade_Credit_Insurance_tgt:
                                                          fund_enriched.pmv_tgt_Investment_Grade_Credit_Insurance
                                                          - 0.460848299982 iTrade_020002BJ9
                                                          - 0.562951104491 iTrade_026874DS3
                                                          - 0.487295432194 iTrade_15135BAW1
                                                          - 0.583333333333 iTrade_21871XAS8
                                                          - 0.299987752488 iTrade_444859BR2
                                                          - 0.578260571821 iTrade_444859BV3
                                                          - 0.580459967536 iTrade_444859BY7
                                                          - 0.563312209458 iTrade_444859CA8
                                                          - 0.523337030595 iTrade_540424AT5
                                                          - 0.521759522393 iTrade_56501RAN6
                                                          - 0.516965991692 iTrade_759351AP4
                                                          - 0.408217997662 iTrade_91324PEJ7
                                                           = -5.178960195913

                                                                                                            limit_sodraw.filterLevel1_sodraw.filterLevel3_Investment_Grade_Credit_Insurance_fund_enriched.dxsCtr_min:
                                                                                                           205.579590690186 iTrade_020002BJ9
                                                                                                           + 337.861841810534 iTrade_026874DS3
                                                                                                           + 378.463515890637 iTrade_15135BAW1
                                                                                                           + 472.067755444785 iTrade_21871XAS8
                                                                                                           + 226.708183055525 iTrade_444859BR2
                                                                                                           + 485.653971192128 iTrade_444859BV3
                                                                                                           + 535.669575596408 iTrade_444859BY7
                                                                                                           + 338.723303282001 iTrade_444859CA8
                                                                                                           + 181.359952598074 iTrade_540424AT5
                                                                                                           + 229.005909621042 iTrade_56501RAN6
                                                                                                           + 209.560231751803 iTrade_759351AP4
                                                                                                           + 152.828183264363 iTrade_91324PEJ7
                                                                                                            >= 
                                                                                                           1991.429728208550

                                                                                                            limit_sodraw.filterLevel1_sodraw.filterLevel3_Investment_Grade_Credit_Insurance_fund_enriched.dxsCtr_max:
                                                                                                           205.579590690186 iTrade_020002BJ9
                                                                                                           + 337.861841810534 iTrade_026874DS3
                                                                                                           + 378.463515890637 iTrade_15135BAW1
                                                                                                           + 472.067755444785 iTrade_21871XAS8
                                                                                                           + 226.708183055525 iTrade_444859BR2
                                                                                                           + 485.653971192128 iTrade_444859BV3
                                                                                                           + 535.669575596408 iTrade_444859BY7
                                                                                                           + 338.723303282001 iTrade_444859CA8
                                                                                                           + 181.359952598074 iTrade_540424AT5
                                                                                                           + 229.005909621042 iTrade_56501RAN6
                                                                                                           + 209.560231751803 iTrade_759351AP4
                                                                                                           + 152.828183264363 iTrade_91324PEJ7
                                                                                                            <= 
                                                                                                           4080.565616206205

                                                                                                              limit_sodraw.filterLevel1_sodraw.filterLevel3_Investment_Grade_Credit_Transportation_fund_enriched.pmv_min:
                                                                                                             1.177130477239 iTrade_13645RAD6
                                                                                                             + 0.641342075346 iTrade_13645RBF0
                                                                                                             + 0.695379577146 iTrade_314353AA1
                                                                                                             + 2.056251137141 iTrade_655844CR7
                                                                                                             + 0.284852219916 iTrade_655844CT3
                                                                                                             + 0.924969910174 iTrade_907818FX1
                                                                                                              >= 
                                                                                                             0.240014083139

                                                                                                              limit_sodraw.filterLevel1_sodraw.filterLevel3_Investment_Grade_Credit_Transportation_fund_enriched.pmv_max:
                                                                                                             1.177130477239 iTrade_13645RAD6
                                                                                                             + 0.641342075346 iTrade_13645RBF0
                                                                                                             + 0.695379577146 iTrade_314353AA1
                                                                                                             + 2.056251137141 iTrade_655844CR7
                                                                                                             + 0.284852219916 iTrade_655844CT3
                                                                                                             + 0.924969910174 iTrade_907818FX1
                                                                                                              <= 
                                                                                                             2.329149971137
 fund_enriched.pmv_Investment_Grade_Credit_Transportation_tgt:
                                                               fund_enriched.pmv_tgt_Investment_Grade_Credit_Transportation
                                                               - 1.177130477239 iTrade_13645RAD6
                                                               - 0.641342075346 iTrade_13645RBF0
                                                               - 0.695379577146 iTrade_314353AA1
                                                               - 2.056251137141 iTrade_655844CR7
                                                               - 0.284852219916 iTrade_655844CT3
                                                               - 0.924969910174 iTrade_907818FX1
                                                                = 
                                                               -1.284582027138

                                                                                                                 limit_sodraw.filterLevel1_sodraw.filterLevel3_Investment_Grade_Credit_Transportation_fund_enriched.dxsCtr_min:
                                                                                                                490.408171768948 iTrade_13645RAD6
                                                                                                                + 242.412768936651 iTrade_13645RBF0
                                                                                                                + 218.305897358047 iTrade_314353AA1
                                                                                                                + 554.590425319261 iTrade_655844CR7
                                                                                                                + 156.488022524534 iTrade_655844CT3
                                                                                                                + 309.123485614604 iTrade_907818FX1
                                                                                                                 >= 
                                                                                                                -479.881210498972

                                                                                                                 limit_sodraw.filterLevel1_sodraw.filterLevel3_Investment_Grade_Credit_Transportation_fund_enriched.dxsCtr_max:
                                                                                                                490.408171768948 iTrade_13645RAD6
                                                                                                                + 242.412768936651 iTrade_13645RBF0
                                                                                                                + 218.305897358047 iTrade_314353AA1
                                                                                                                + 554.590425319261 iTrade_655844CR7
                                                                                                                + 156.488022524534 iTrade_655844CT3
                                                                                                                + 309.123485614604 iTrade_907818FX1
                                                                                                                 <= 
                                                                                                                1609.254677498683
 low_cnstr_cash: 0.460848299982 iTrade_020002BJ9
                 + 0.562951104491 iTrade_026874DS3
                 + 0.498939895061 iTrade_081437AT2
                 + 0.245689659406 iTrade_097023CJ2
                 + 1.177130477239 iTrade_13645RAD6
                 + 0.641342075346 iTrade_13645RBF0
                 + 0.593947311212 iTrade_14448CBC7
                 + 0.487295432194 iTrade_15135BAW1
                 + 0.583333333333 iTrade_21871XAS8
                 + 0.359862572135 iTrade_24422EWZ8
                 + 0.570885850982 iTrade_24422EXP9
                 + 0.695379577146 iTrade_314353AA1
                 + 0.556954443193 iTrade_36166NAK9
                 + 0.554189150511 iTrade_438516CM6
                 + 0.318717548589 iTrade_443201AC2
                 + 0.299987752488 iTrade_444859BR2
                 + 0.578260571821 iTrade_444859BV3
                 + 0.580459967536 iTrade_444859BY7
                 + 0.563312209458 iTrade_444859CA8
                 + 0.235887590873 iTrade_45687VAB2
                 + 0.561372552427 iTrade_539830CD9
                 + 0.523337030595 iTrade_540424AT5
                 + 0.521759522393 iTrade_56501RAN6
                 + 2.056251137141 iTrade_655844CR7
                 + 0.284852219916 iTrade_655844CT3
                 + 0.451779939004 iTrade_75513EAD3
                 + 0.516965991692 iTrade_759351AP4
                 + 0.462441975119 iTrade_760759BA7
                 + 0.560876197288 iTrade_760759BC3
                 + 0.924969910174 iTrade_907818FX1
                 + 0.408217997662 iTrade_91324PEJ7 >= 2.600974180557
 cnstr_cash: 0.460848299982 iTrade_020002BJ9 + 0.562951104491 iTrade_026874DS3
             + 0.498939895061 iTrade_081437AT2 + 0.245689659406 iTrade_097023CJ2
             + 1.177130477239 iTrade_13645RAD6 + 0.641342075346 iTrade_13645RBF0
             + 0.593947311212 iTrade_14448CBC7 + 0.487295432194 iTrade_15135BAW1
             + 0.583333333333 iTrade_21871XAS8 + 0.359862572135 iTrade_24422EWZ8
             + 0.570885850982 iTrade_24422EXP9 + 0.695379577146 iTrade_314353AA1
             + 0.556954443193 iTrade_36166NAK9 + 0.554189150511 iTrade_438516CM6
             + 0.318717548589 iTrade_443201AC2 + 0.299987752488 iTrade_444859BR2
             + 0.578260571821 iTrade_444859BV3 + 0.580459967536 iTrade_444859BY7
             + 0.563312209458 iTrade_444859CA8 + 0.235887590873 iTrade_45687VAB2
             + 0.561372552427 iTrade_539830CD9 + 0.523337030595 iTrade_540424AT5
             + 0.521759522393 iTrade_56501RAN6 + 2.056251137141 iTrade_655844CR7
             + 0.284852219916 iTrade_655844CT3 + 0.451779939004 iTrade_75513EAD3
             + 0.516965991692 iTrade_759351AP4 + 0.462441975119 iTrade_760759BA7
             + 0.560876197288 iTrade_760759BC3 + 0.924969910174 iTrade_907818FX1
             + 0.408217997662 iTrade_91324PEJ7 <= 10.435233760548

Bounds
 0 <= iTrade_020002BJ9 <= 1
 0 <= iTrade_026874DS3 <= 1
 0 <= iTrade_081437AT2 <= 1
 0 <= iTrade_097023CJ2 <= 1
 0 <= iTrade_13645RAD6 <= 1
 0 <= iTrade_13645RBF0 <= 1
 0 <= iTrade_14448CBC7 <= 1
 0 <= iTrade_15135BAW1 <= 1
 0 <= iTrade_21871XAS8 <= 1
 0 <= iTrade_24422EWZ8 <= 1
 0 <= iTrade_24422EXP9 <= 1
 0 <= iTrade_314353AA1 <= 1
 0 <= iTrade_36166NAK9 <= 1
 0 <= iTrade_438516CM6 <= 1
 0 <= iTrade_443201AC2 <= 1
 0 <= iTrade_444859BR2 <= 1
 0 <= iTrade_444859BV3 <= 1
 0 <= iTrade_444859BY7 <= 1
 0 <= iTrade_444859CA8 <= 1
 0 <= iTrade_45687VAB2 <= 1
 0 <= iTrade_539830CD9 <= 1
 0 <= iTrade_540424AT5 <= 1
 0 <= iTrade_56501RAN6 <= 1
 0 <= iTrade_655844CR7 <= 1
 0 <= iTrade_655844CT3 <= 1
 0 <= iTrade_75513EAD3 <= 1
 0 <= iTrade_759351AP4 <= 1
 0 <= iTrade_760759BA7 <= 1
 0 <= iTrade_760759BC3 <= 1
 0 <= iTrade_907818FX1 <= 1
 0 <= iTrade_91324PEJ7 <= 1
       fund_enriched.pmv_tgt_Investment_Grade_Credit_Capital_Goods Free
       fund_enriched.pmv_tgt_Investment_Grade_Credit_Insurance Free
       fund_enriched.pmv_tgt_Investment_Grade_Credit_Transportation Free

Binaries
 iTrade_020002BJ9 iTrade_026874DS3 iTrade_081437AT2 iTrade_097023CJ2
 iTrade_13645RAD6 iTrade_13645RBF0 iTrade_14448CBC7 iTrade_15135BAW1
 iTrade_21871XAS8 iTrade_24422EWZ8 iTrade_24422EXP9 iTrade_314353AA1
 iTrade_36166NAK9 iTrade_438516CM6 iTrade_443201AC2 iTrade_444859BR2
 iTrade_444859BV3 iTrade_444859BY7 iTrade_444859CA8 iTrade_45687VAB2
 iTrade_539830CD9 iTrade_540424AT5 iTrade_56501RAN6 iTrade_655844CR7
 iTrade_655844CT3 iTrade_75513EAD3 iTrade_759351AP4 iTrade_760759BA7
 iTrade_760759BC3 iTrade_907818FX1 iTrade_91324PEJ7
End
